(declare-const x0 Bool)
(declare-const x1 Bool)
(declare-const x2 Bool)
(declare-const x3 Bool)
(declare-const x4 Bool)
(declare-const x5 Bool)
(declare-const x6 Bool)
(declare-const x7 Bool)
(declare-const x8 Bool)
(declare-const x9 Bool)
(declare-const x10 Bool)
(declare-const x11 Bool)
(declare-const x12 Bool)
(declare-const x13 Bool)
(declare-const x14 Bool)
(declare-const y0 Real)
(declare-const y1 Real)
(declare-const y2 Real)
(declare-const y3 Real)
(declare-const y4 Real)
(declare-const y5 Real)
(declare-const y6 Real)
(declare-const y7 Real)
(declare-const y8 Real)
(declare-const y9 Real)
(declare-const y10 Real)
(declare-const y11 Real)
(assert x7)
(assert x8)
(assert (= 0 (+ y0 46)))
(assert (or x8 true))
(assert (= (or (or x12 (and x3 (= y4 y11))) (and x11 x5)) (or x7 true)))
(assert (and true x5))
(assert (< y6 71))
(assert (= y11 (+ y0 34)))
(assert (and (or (or (= x13 false) (or (and (and false false) (< 47 y5)) (and true x10))) x12) true))
(check-sat)
